H16 O8
1.0
   4.4922500000000003    0.0000000000000000    0.0000000000000000
   0.0000000000000000    7.7808000000000002    0.0000000000000000
   0.0000000000000000    0.0000000000000000    7.3358100000000004
O H
8 16
direct
   0.0000000000000000    0.6666666666666667    0.0625002555954966 O
   0.0000000000000000    0.3333333333333334    0.5624995740075055 O
   0.4999988869720073    0.1666666666666667    0.0625002555954966 O
   0.4999988869720073    0.8333333333333334    0.5624995740075055 O
   0.4999988869720073    0.8333333333333334   -0.0625002555954966 O
   0.4999988869720073    0.1666666666666667    0.4375004259924943 O
   0.0000000000000000    0.3333333333333334   -0.0625002555954966 O
   0.0000000000000000    0.6666666666666667    0.4375004259924943 O
   0.1764728142912794    0.7201778737404895    0.0163894648307413 H
   0.0079715064833881    0.5516759202138598    0.0163894648307413 H
  -0.1764728142912794    0.2745090479128111    0.5243606363850754 H
  -0.0079715064833881    0.3306767941599836    0.6928614563354284 H
   0.4999988869720073    0.1613535883199671    0.1928607747474375 H
   0.4999988869720073    0.0490180958256220    0.0243599547970844 H
   0.3314975791641160    0.7718525087394613    0.5163887832427503 H
   0.6685001947798986    0.7718525087394613    0.5163887832427503 H
   0.6764717012632867    0.7745090479128111   -0.0243599547970844 H
   0.5079703934553954    0.8306767941599836   -0.1928607747474375 H
   0.3235282987367132    0.2201765885256015    0.4836112167572497 H
   0.4920296065446045    0.0516759202138598    0.4836112167572497 H
   0.1685013078078914    0.2718525087394613   -0.0163894648307413 H
  -0.1685013078078914    0.2718525087394613   -0.0163894648307413 H
   0.0000000000000000    0.6613535883199672    0.3071385436645714 H
   0.0000000000000000    0.5490193810405101    0.4756407267909065 H
