H16 O8
1.0
   4.4922500000000003    0.0000000000000000    0.0000000000000000
   0.0000000000000000    7.7808000000000002    0.0000000000000000
   0.0000000000000000    0.0000000000000000    7.3358100000000004
O H
8 16
direct
   0.0000000000000000    0.6666666666666667    0.0625002555954966 O
   0.0000000000000000    0.3333333333333334    0.5624995740075055 O
   0.4999988869720073    0.1666666666666667    0.0625002555954966 O
   0.4999988869720073    0.8333333333333334    0.5624995740075055 O
   0.4999988869720073    0.8333333333333334   -0.0625002555954966 O
   0.4999988869720073    0.1666666666666667    0.4375004259924943 O
   0.0000000000000000    0.3333333333333334   -0.0625002555954966 O
   0.0000000000000000    0.6666666666666667    0.4375004259924943 O
   0.0000000000000000    0.5490193810405101    0.0243599547970844 H
   0.0000000000000000    0.6613535883199672    0.1928607747474375 H
   0.0000000000000000    0.4509819041743780    0.5243606363850754 H
   0.0000000000000000    0.3386476968949209    0.6928614563354284 H
   0.4999988869720073    0.1613535883199671    0.1928607747474375 H
   0.4999988869720073    0.0490180958256220    0.0243599547970844 H
   0.4999988869720073    0.8386476968949209    0.6928614563354284 H
   0.4999988869720073    0.9509819041743780    0.5243606363850754 H
   0.3314975791641160    0.7718525087394613   -0.0163894648307413 H
   0.6685001947798986    0.7718525087394613   -0.0163894648307413 H
   0.3314975791641160    0.2281474912605388    0.4836112167572497 H
   0.6685001947798986    0.2281474912605388    0.4836112167572497 H
   0.1685013078078914    0.2718525087394613   -0.0163894648307413 H
  -0.1685013078078914    0.2718525087394613   -0.0163894648307413 H
   0.1685013078078914    0.7281474912605388    0.4836112167572497 H
  -0.1685013078078914    0.7281474912605388    0.4836112167572497 H
